7910.36 0
0 32 17 20 57 18 9 50 67 11 36 64 12 35 46 16 62 98 70 24 31 34 63 61 53 81 58 75 23 69 27 52 82 59 76 41 66 21 19 87 3 22 99 95 5 68 86 77 42 26 44 8 25 7 38 51 72 84 78 93 49 88 45 4 89 92 74 73 91 56 83 90 71 54 10 60 1 94 65 80 33 37 15 47 43 55 28 2 48 96 6 85 13 40 30 29 79 97 14 39